
******************************************************************************
This program contains Ipopt, a library for large-scale nonlinear optimization.
 Ipopt is released as open source code under the Eclipse Public License (EPL).
         For more information visit https://github.com/coin-or/Ipopt
******************************************************************************

This is Ipopt version 3.14.19, running with linear solver MUMPS 5.8.1.

Number of nonzeros in equality constraint Jacobian...:     4389
Number of nonzeros in inequality constraint Jacobian.:        0
Number of nonzeros in Lagrangian Hessian.............:     1050

Total number of variables............................:     1287
                     variables with only lower bounds:        0
                variables with lower and upper bounds:      457
                     variables with only upper bounds:        0
Total number of equality constraints.................:     1274
Total number of inequality constraints...............:        0
        inequality constraints with only lower bounds:        0
   inequality constraints with lower and upper bounds:        0
        inequality constraints with only upper bounds:        0

iter    objective    inf_pr   inf_du lg(mu)  ||d||  lg(rg) alpha_du alpha_pr  ls
   0  9.8479308e+00 9.90e+01 2.52e-04  -1.0 0.00e+00    -  0.00e+00 0.00e+00   0
   1  9.8733821e+00 9.35e+00 2.20e+01  -1.0 9.98e+01    -  4.18e-02 9.92e-01h  1
   2  9.8616509e+00 4.87e+00 9.84e-01  -1.0 1.73e+01    -  7.92e-01 9.94e-01h  1
   3  9.8558765e+00 1.80e+01 1.29e+00  -1.0 2.24e+02    -  9.87e-01 2.76e-01h  2
   4  9.8497331e+00 9.07e+01 7.62e-02  -1.0 2.23e+02    -  1.00e+00 1.00e+00h  1
   5  9.8493608e+00 4.81e+00 3.80e-02  -1.0 1.58e+02    -  1.00e+00 1.00e+00h  1
   6  9.8523094e+00 4.92e+00 2.60e-03  -1.0 7.25e+00    -  1.00e+00 1.00e+00h  1
   7  9.8515634e+00 1.87e-01 4.04e-05  -1.0 3.43e+00    -  1.00e+00 1.00e+00h  1
   8  9.8486517e+00 3.39e-01 6.91e-02  -2.5 9.79e-01    -  9.77e-01 1.00e+00h  1
   9  9.8485380e+00 2.93e-02 8.94e-06  -2.5 6.30e-01    -  1.00e+00 1.00e+00h  1
iter    objective    inf_pr   inf_du lg(mu)  ||d||  lg(rg) alpha_du alpha_pr  ls
  10  9.8485372e+00 4.97e-06 2.49e-10  -2.5 3.48e-02    -  1.00e+00 1.00e+00h  1
  11  9.8485336e+00 1.00e-03 9.05e-07  -3.8 8.17e-02    -  1.00e+00 1.00e+00h  1
  12  9.8485175e+00 4.64e-06 7.65e-04  -5.7 2.41e-02    -  8.32e-01 1.00e+00h  1
  13  9.8480776e+00 6.90e-06 2.26e-04  -5.7 6.41e-01    -  2.53e-01 1.00e+00h  1
  14  9.8479622e+00 2.74e-06 5.55e-05  -5.7 2.28e-01    -  1.00e+00 6.73e-01h  1
  15  9.8479166e+00 2.66e-07 8.51e-07  -5.7 4.04e-01    -  1.00e+00 9.31e-01f  1
  16  9.8478970e+00 1.62e-07 8.80e-05  -8.6 5.86e-02    -  9.43e-01 4.45e-01h  1
  17  9.8478970e+00 1.13e-07 4.92e-04  -8.6 3.65e-04    -  1.00e+00 3.00e-01h  1
  18  9.8478970e+00 1.03e-11 1.45e-14  -8.6 1.51e-05    -  1.00e+00 1.00e+00f  1

Number of Iterations....: 18

                                   (scaled)                 (unscaled)
Objective...............:   9.8478970362679359e+00    9.8478970362679359e+00
Dual infeasibility......:   1.4488410471358293e-14    1.4488410471358293e-14
Constraint violation....:   1.0333067734793892e-11    1.0333067734793892e-11
Variable bound violation:   0.0000000000000000e+00    0.0000000000000000e+00
Complementarity.........:   2.5096545796633487e-09    2.5096545796633487e-09
Overall NLP error.......:   2.5096545796633487e-09    2.5096545796633487e-09


Number of objective function evaluations             = 21
Number of objective gradient evaluations             = 19
Number of equality constraint evaluations            = 21
Number of inequality constraint evaluations          = 0
Number of equality constraint Jacobian evaluations   = 19
Number of inequality constraint Jacobian evaluations = 0
Number of Lagrangian Hessian evaluations             = 18
Total seconds in IPOPT                               = 0.092

EXIT: Optimal Solution Found.
